p cnf 386 1308
c p weight -153 1 0
c p weight 153 -1 0
c p weight 157 6.12323399573676603586882014729198302312846062338790031898128063403419218957424163818359375E-17 0
c p weight -157 1 0
c p weight 158 1 0
c p weight -158 1 0
c p weight -155 1 0
c p weight 155 -1 0
c p weight -159 1 0
c p weight 159 -1 0
c p weight -161 1 0
c p weight 161 -1 0
c p weight -164 1 0
c p weight 164 -1 0
c p weight -167 1 0
c p weight 167 -1 0
c p weight -170 1 0
c p weight 170 -1 0
c p weight -173 1 0
c p weight 173 -1 0
c p weight -176 1 0
c p weight 176 -1 0
c p weight -179 1 0
c p weight 179 -1 0
c p weight -182 1 0
c p weight 182 -1 0
c p weight -185 1 0
c p weight 185 -1 0
c p weight -188 1 0
c p weight 188 -1 0
c p weight -191 1 0
c p weight 191 -1 0
c p weight -194 1 0
c p weight 194 -1 0
c p weight -197 1 0
c p weight 197 -1 0
c p weight -200 1 0
c p weight 200 -1 0
c p weight -203 1 0
c p weight 203 -1 0
c p weight -206 1 0
c p weight 206 -1 0
c p weight -209 1 0
c p weight 209 -1 0
c p weight -212 1 0
c p weight 212 -1 0
c p weight -215 1 0
c p weight 215 -1 0
c p weight -218 1 0
c p weight 218 -1 0
c p weight -221 1 0
c p weight 221 -1 0
c p weight -224 1 0
c p weight 224 -1 0
c p weight -227 1 0
c p weight 227 -1 0
c p weight -230 1 0
c p weight 230 -1 0
c p weight -233 1 0
c p weight 233 -1 0
c p weight -236 1 0
c p weight 236 -1 0
c p weight -239 1 0
c p weight 239 -1 0
c p weight -242 1 0
c p weight 242 -1 0
c p weight -245 1 0
c p weight 245 -1 0
c p weight -248 1 0
c p weight 248 -1 0
c p weight -251 1 0
c p weight 251 -1 0
c p weight -254 1 0
c p weight 254 -1 0
c p weight -257 1 0
c p weight 257 -1 0
c p weight -260 1 0
c p weight 260 -1 0
c p weight -263 1 0
c p weight 263 -1 0
c p weight -266 1 0
c p weight 266 -1 0
c p weight -269 1 0
c p weight 269 -1 0
c p weight -272 1 0
c p weight 272 -1 0
c p weight -275 1 0
c p weight 275 -1 0
c p weight -278 1 0
c p weight 278 -1 0
c p weight -281 1 0
c p weight 281 -1 0
c p weight -284 1 0
c p weight 284 -1 0
c p weight -287 1 0
c p weight 287 -1 0
c p weight -290 1 0
c p weight 290 -1 0
c p weight -293 1 0
c p weight 293 -1 0
c p weight -296 1 0
c p weight 296 -1 0
c p weight -299 1 0
c p weight 299 -1 0
c p weight -302 1 0
c p weight 302 -1 0
c p weight -305 1 0
c p weight 305 -1 0
c p weight -308 1 0
c p weight 308 -1 0
c p weight -311 1 0
c p weight 311 -1 0
c p weight -314 1 0
c p weight 314 -1 0
c p weight -317 1 0
c p weight 317 -1 0
c p weight -320 1 0
c p weight 320 -1 0
c p weight -323 1 0
c p weight 323 -1 0
c p weight -326 1 0
c p weight 326 -1 0
c p weight -329 1 0
c p weight 329 -1 0
c p weight -332 1 0
c p weight 332 -1 0
c p weight -335 1 0
c p weight 335 -1 0
c p weight -338 1 0
c p weight 338 -1 0
c p weight -341 1 0
c p weight 341 -1 0
c p weight -344 1 0
c p weight 344 -1 0
c p weight -347 1 0
c p weight 347 -1 0
c p weight -350 1 0
c p weight 350 -1 0
c p weight -353 1 0
c p weight 353 -1 0
c p weight -356 1 0
c p weight 356 -1 0
c p weight -359 1 0
c p weight 359 -1 0
c p weight -362 1 0
c p weight 362 -1 0
c p weight -365 1 0
c p weight 365 -1 0
c p weight -368 1 0
c p weight 368 -1 0
c p weight -371 1 0
c p weight 371 -1 0
c p weight -374 1 0
c p weight 374 -1 0
c p weight -377 1 0
c p weight 377 -1 0
c p weight -380 1 0
c p weight 380 -1 0
c p weight -383 1 0
c p weight 383 -1 0
c p weight 386 0.5 0
c p weight -386 1 0
386 0
-151 0
-149 0
-147 0
-145 0
-143 0
-141 0
-139 0
-137 0
-135 0
-133 0
-131 0
-129 0
-127 0
-125 0
-123 0
-121 0
-119 0
-117 0
-115 0
-113 0
-111 0
-109 0
-107 0
-105 0
-103 0
-101 0
-99 0
-97 0
-95 0
-93 0
-91 0
-89 0
-87 0
-85 0
-83 0
-81 0
-79 0
-77 0
-75 0
-73 0
-71 0
-69 0
-67 0
-65 0
-63 0
-61 0
-59 0
-57 0
-55 0
-53 0
-51 0
-49 0
-47 0
-45 0
-43 0
-41 0
-39 0
-37 0
-35 0
-33 0
-31 0
-29 0
-27 0
-25 0
-23 0
-21 0
-19 0
-17 0
-15 0
-13 0
-11 0
-9 0
-7 0
-5 0
-3 0
-1 0
-153 151 0
-153 152 0
153 -151 -152 0
154 151 -152 0
154 -151 152 0
-154 151 152 0
-154 -151 -152 0
-155 156 0
-155 154 0
-155 -151 0
155 -156 151 -154 0
156 -151 154 0
-156 151 154 0
-157 154 0
156 -157 -151 0
-156 -157 151 0
156 157 151 -154 0
-156 157 -151 -154 0
-158 154 0
156 -158 151 0
-156 -158 -151 0
156 158 -151 -154 0
-156 158 151 -154 0
-159 156 0
-159 154 0
159 -156 -154 0
160 156 -154 0
160 -156 154 0
-160 156 154 0
-160 -156 -154 0
-161 156 0
-161 150 0
-161 149 -160 0
-161 -149 160 0
161 -156 149 160 -150 0
161 -156 -149 -160 -150 0
163 156 -149 0
163 -156 149 0
-163 156 149 0
-163 -156 -149 0
162 160 -150 0
162 -160 150 0
-162 160 150 0
-162 -160 -150 0
-164 163 0
-164 148 0
-164 147 -150 0
-164 -147 150 0
164 -163 147 150 -148 0
164 -163 -147 -150 -148 0
166 163 -147 0
166 -163 147 0
-166 163 147 0
-166 -163 -147 0
165 150 -148 0
165 -150 148 0
-165 150 148 0
-165 -150 -148 0
-167 166 0
-167 146 0
-167 145 -148 0
-167 -145 148 0
167 -166 145 148 -146 0
167 -166 -145 -148 -146 0
169 166 -145 0
169 -166 145 0
-169 166 145 0
-169 -166 -145 0
168 148 -146 0
168 -148 146 0
-168 148 146 0
-168 -148 -146 0
-170 169 0
-170 144 0
-170 143 -146 0
-170 -143 146 0
170 -169 143 146 -144 0
170 -169 -143 -146 -144 0
172 169 -143 0
172 -169 143 0
-172 169 143 0
-172 -169 -143 0
171 146 -144 0
171 -146 144 0
-171 146 144 0
-171 -146 -144 0
-173 172 0
-173 142 0
-173 141 -144 0
-173 -141 144 0
173 -172 141 144 -142 0
173 -172 -141 -144 -142 0
175 172 -141 0
175 -172 141 0
-175 172 141 0
-175 -172 -141 0
174 144 -142 0
174 -144 142 0
-174 144 142 0
-174 -144 -142 0
-176 175 0
-176 140 0
-176 139 -142 0
-176 -139 142 0
176 -175 139 142 -140 0
176 -175 -139 -142 -140 0
178 175 -139 0
178 -175 139 0
-178 175 139 0
-178 -175 -139 0
177 142 -140 0
177 -142 140 0
-177 142 140 0
-177 -142 -140 0
-179 178 0
-179 138 0
-179 137 -140 0
-179 -137 140 0
179 -178 137 140 -138 0
179 -178 -137 -140 -138 0
181 178 -137 0
181 -178 137 0
-181 178 137 0
-181 -178 -137 0
180 140 -138 0
180 -140 138 0
-180 140 138 0
-180 -140 -138 0
-182 181 0
-182 136 0
-182 135 -138 0
-182 -135 138 0
182 -181 135 138 -136 0
182 -181 -135 -138 -136 0
184 181 -135 0
184 -181 135 0
-184 181 135 0
-184 -181 -135 0
183 138 -136 0
183 -138 136 0
-183 138 136 0
-183 -138 -136 0
-185 184 0
-185 134 0
-185 133 -136 0
-185 -133 136 0
185 -184 133 136 -134 0
185 -184 -133 -136 -134 0
187 184 -133 0
187 -184 133 0
-187 184 133 0
-187 -184 -133 0
186 136 -134 0
186 -136 134 0
-186 136 134 0
-186 -136 -134 0
-188 187 0
-188 132 0
-188 131 -134 0
-188 -131 134 0
188 -187 131 134 -132 0
188 -187 -131 -134 -132 0
190 187 -131 0
190 -187 131 0
-190 187 131 0
-190 -187 -131 0
189 134 -132 0
189 -134 132 0
-189 134 132 0
-189 -134 -132 0
-191 190 0
-191 130 0
-191 129 -132 0
-191 -129 132 0
191 -190 129 132 -130 0
191 -190 -129 -132 -130 0
193 190 -129 0
193 -190 129 0
-193 190 129 0
-193 -190 -129 0
192 132 -130 0
192 -132 130 0
-192 132 130 0
-192 -132 -130 0
-194 193 0
-194 128 0
-194 127 -130 0
-194 -127 130 0
194 -193 127 130 -128 0
194 -193 -127 -130 -128 0
196 193 -127 0
196 -193 127 0
-196 193 127 0
-196 -193 -127 0
195 130 -128 0
195 -130 128 0
-195 130 128 0
-195 -130 -128 0
-197 196 0
-197 126 0
-197 125 -128 0
-197 -125 128 0
197 -196 125 128 -126 0
197 -196 -125 -128 -126 0
199 196 -125 0
199 -196 125 0
-199 196 125 0
-199 -196 -125 0
198 128 -126 0
198 -128 126 0
-198 128 126 0
-198 -128 -126 0
-200 199 0
-200 124 0
-200 123 -126 0
-200 -123 126 0
200 -199 123 126 -124 0
200 -199 -123 -126 -124 0
202 199 -123 0
202 -199 123 0
-202 199 123 0
-202 -199 -123 0
201 126 -124 0
201 -126 124 0
-201 126 124 0
-201 -126 -124 0
-203 202 0
-203 122 0
-203 121 -124 0
-203 -121 124 0
203 -202 121 124 -122 0
203 -202 -121 -124 -122 0
205 202 -121 0
205 -202 121 0
-205 202 121 0
-205 -202 -121 0
204 124 -122 0
204 -124 122 0
-204 124 122 0
-204 -124 -122 0
-206 205 0
-206 120 0
-206 119 -122 0
-206 -119 122 0
206 -205 119 122 -120 0
206 -205 -119 -122 -120 0
208 205 -119 0
208 -205 119 0
-208 205 119 0
-208 -205 -119 0
207 122 -120 0
207 -122 120 0
-207 122 120 0
-207 -122 -120 0
-209 208 0
-209 118 0
-209 117 -120 0
-209 -117 120 0
209 -208 117 120 -118 0
209 -208 -117 -120 -118 0
211 208 -117 0
211 -208 117 0
-211 208 117 0
-211 -208 -117 0
210 120 -118 0
210 -120 118 0
-210 120 118 0
-210 -120 -118 0
-212 211 0
-212 116 0
-212 115 -118 0
-212 -115 118 0
212 -211 115 118 -116 0
212 -211 -115 -118 -116 0
214 211 -115 0
214 -211 115 0
-214 211 115 0
-214 -211 -115 0
213 118 -116 0
213 -118 116 0
-213 118 116 0
-213 -118 -116 0
-215 214 0
-215 114 0
-215 113 -116 0
-215 -113 116 0
215 -214 113 116 -114 0
215 -214 -113 -116 -114 0
217 214 -113 0
217 -214 113 0
-217 214 113 0
-217 -214 -113 0
216 116 -114 0
216 -116 114 0
-216 116 114 0
-216 -116 -114 0
-218 217 0
-218 112 0
-218 111 -114 0
-218 -111 114 0
218 -217 111 114 -112 0
218 -217 -111 -114 -112 0
220 217 -111 0
220 -217 111 0
-220 217 111 0
-220 -217 -111 0
219 114 -112 0
219 -114 112 0
-219 114 112 0
-219 -114 -112 0
-221 220 0
-221 110 0
-221 109 -112 0
-221 -109 112 0
221 -220 109 112 -110 0
221 -220 -109 -112 -110 0
223 220 -109 0
223 -220 109 0
-223 220 109 0
-223 -220 -109 0
222 112 -110 0
222 -112 110 0
-222 112 110 0
-222 -112 -110 0
-224 223 0
-224 108 0
-224 107 -110 0
-224 -107 110 0
224 -223 107 110 -108 0
224 -223 -107 -110 -108 0
226 223 -107 0
226 -223 107 0
-226 223 107 0
-226 -223 -107 0
225 110 -108 0
225 -110 108 0
-225 110 108 0
-225 -110 -108 0
-227 226 0
-227 106 0
-227 105 -108 0
-227 -105 108 0
227 -226 105 108 -106 0
227 -226 -105 -108 -106 0
229 226 -105 0
229 -226 105 0
-229 226 105 0
-229 -226 -105 0
228 108 -106 0
228 -108 106 0
-228 108 106 0
-228 -108 -106 0
-230 229 0
-230 104 0
-230 103 -106 0
-230 -103 106 0
230 -229 103 106 -104 0
230 -229 -103 -106 -104 0
232 229 -103 0
232 -229 103 0
-232 229 103 0
-232 -229 -103 0
231 106 -104 0
231 -106 104 0
-231 106 104 0
-231 -106 -104 0
-233 232 0
-233 102 0
-233 101 -104 0
-233 -101 104 0
233 -232 101 104 -102 0
233 -232 -101 -104 -102 0
235 232 -101 0
235 -232 101 0
-235 232 101 0
-235 -232 -101 0
234 104 -102 0
234 -104 102 0
-234 104 102 0
-234 -104 -102 0
-236 235 0
-236 100 0
-236 99 -102 0
-236 -99 102 0
236 -235 99 102 -100 0
236 -235 -99 -102 -100 0
238 235 -99 0
238 -235 99 0
-238 235 99 0
-238 -235 -99 0
237 102 -100 0
237 -102 100 0
-237 102 100 0
-237 -102 -100 0
-239 238 0
-239 98 0
-239 97 -100 0
-239 -97 100 0
239 -238 97 100 -98 0
239 -238 -97 -100 -98 0
241 238 -97 0
241 -238 97 0
-241 238 97 0
-241 -238 -97 0
240 100 -98 0
240 -100 98 0
-240 100 98 0
-240 -100 -98 0
-242 241 0
-242 96 0
-242 95 -98 0
-242 -95 98 0
242 -241 95 98 -96 0
242 -241 -95 -98 -96 0
244 241 -95 0
244 -241 95 0
-244 241 95 0
-244 -241 -95 0
243 98 -96 0
243 -98 96 0
-243 98 96 0
-243 -98 -96 0
-245 244 0
-245 94 0
-245 93 -96 0
-245 -93 96 0
245 -244 93 96 -94 0
245 -244 -93 -96 -94 0
247 244 -93 0
247 -244 93 0
-247 244 93 0
-247 -244 -93 0
246 96 -94 0
246 -96 94 0
-246 96 94 0
-246 -96 -94 0
-248 247 0
-248 92 0
-248 91 -94 0
-248 -91 94 0
248 -247 91 94 -92 0
248 -247 -91 -94 -92 0
250 247 -91 0
250 -247 91 0
-250 247 91 0
-250 -247 -91 0
249 94 -92 0
249 -94 92 0
-249 94 92 0
-249 -94 -92 0
-251 250 0
-251 90 0
-251 89 -92 0
-251 -89 92 0
251 -250 89 92 -90 0
251 -250 -89 -92 -90 0
253 250 -89 0
253 -250 89 0
-253 250 89 0
-253 -250 -89 0
252 92 -90 0
252 -92 90 0
-252 92 90 0
-252 -92 -90 0
-254 253 0
-254 88 0
-254 87 -90 0
-254 -87 90 0
254 -253 87 90 -88 0
254 -253 -87 -90 -88 0
256 253 -87 0
256 -253 87 0
-256 253 87 0
-256 -253 -87 0
255 90 -88 0
255 -90 88 0
-255 90 88 0
-255 -90 -88 0
-257 256 0
-257 86 0
-257 85 -88 0
-257 -85 88 0
257 -256 85 88 -86 0
257 -256 -85 -88 -86 0
259 256 -85 0
259 -256 85 0
-259 256 85 0
-259 -256 -85 0
258 88 -86 0
258 -88 86 0
-258 88 86 0
-258 -88 -86 0
-260 259 0
-260 84 0
-260 83 -86 0
-260 -83 86 0
260 -259 83 86 -84 0
260 -259 -83 -86 -84 0
262 259 -83 0
262 -259 83 0
-262 259 83 0
-262 -259 -83 0
261 86 -84 0
261 -86 84 0
-261 86 84 0
-261 -86 -84 0
-263 262 0
-263 82 0
-263 81 -84 0
-263 -81 84 0
263 -262 81 84 -82 0
263 -262 -81 -84 -82 0
265 262 -81 0
265 -262 81 0
-265 262 81 0
-265 -262 -81 0
264 84 -82 0
264 -84 82 0
-264 84 82 0
-264 -84 -82 0
-266 265 0
-266 80 0
-266 79 -82 0
-266 -79 82 0
266 -265 79 82 -80 0
266 -265 -79 -82 -80 0
268 265 -79 0
268 -265 79 0
-268 265 79 0
-268 -265 -79 0
267 82 -80 0
267 -82 80 0
-267 82 80 0
-267 -82 -80 0
-269 268 0
-269 78 0
-269 77 -80 0
-269 -77 80 0
269 -268 77 80 -78 0
269 -268 -77 -80 -78 0
271 268 -77 0
271 -268 77 0
-271 268 77 0
-271 -268 -77 0
270 80 -78 0
270 -80 78 0
-270 80 78 0
-270 -80 -78 0
-272 271 0
-272 76 0
-272 75 -78 0
-272 -75 78 0
272 -271 75 78 -76 0
272 -271 -75 -78 -76 0
274 271 -75 0
274 -271 75 0
-274 271 75 0
-274 -271 -75 0
273 78 -76 0
273 -78 76 0
-273 78 76 0
-273 -78 -76 0
-275 274 0
-275 74 0
-275 73 -76 0
-275 -73 76 0
275 -274 73 76 -74 0
275 -274 -73 -76 -74 0
277 274 -73 0
277 -274 73 0
-277 274 73 0
-277 -274 -73 0
276 76 -74 0
276 -76 74 0
-276 76 74 0
-276 -76 -74 0
-278 277 0
-278 72 0
-278 71 -74 0
-278 -71 74 0
278 -277 71 74 -72 0
278 -277 -71 -74 -72 0
280 277 -71 0
280 -277 71 0
-280 277 71 0
-280 -277 -71 0
279 74 -72 0
279 -74 72 0
-279 74 72 0
-279 -74 -72 0
-281 280 0
-281 70 0
-281 69 -72 0
-281 -69 72 0
281 -280 69 72 -70 0
281 -280 -69 -72 -70 0
283 280 -69 0
283 -280 69 0
-283 280 69 0
-283 -280 -69 0
282 72 -70 0
282 -72 70 0
-282 72 70 0
-282 -72 -70 0
-284 283 0
-284 68 0
-284 67 -70 0
-284 -67 70 0
284 -283 67 70 -68 0
284 -283 -67 -70 -68 0
286 283 -67 0
286 -283 67 0
-286 283 67 0
-286 -283 -67 0
285 70 -68 0
285 -70 68 0
-285 70 68 0
-285 -70 -68 0
-287 286 0
-287 66 0
-287 65 -68 0
-287 -65 68 0
287 -286 65 68 -66 0
287 -286 -65 -68 -66 0
289 286 -65 0
289 -286 65 0
-289 286 65 0
-289 -286 -65 0
288 68 -66 0
288 -68 66 0
-288 68 66 0
-288 -68 -66 0
-290 289 0
-290 64 0
-290 63 -66 0
-290 -63 66 0
290 -289 63 66 -64 0
290 -289 -63 -66 -64 0
292 289 -63 0
292 -289 63 0
-292 289 63 0
-292 -289 -63 0
291 66 -64 0
291 -66 64 0
-291 66 64 0
-291 -66 -64 0
-293 292 0
-293 62 0
-293 61 -64 0
-293 -61 64 0
293 -292 61 64 -62 0
293 -292 -61 -64 -62 0
295 292 -61 0
295 -292 61 0
-295 292 61 0
-295 -292 -61 0
294 64 -62 0
294 -64 62 0
-294 64 62 0
-294 -64 -62 0
-296 295 0
-296 60 0
-296 59 -62 0
-296 -59 62 0
296 -295 59 62 -60 0
296 -295 -59 -62 -60 0
298 295 -59 0
298 -295 59 0
-298 295 59 0
-298 -295 -59 0
297 62 -60 0
297 -62 60 0
-297 62 60 0
-297 -62 -60 0
-299 298 0
-299 58 0
-299 57 -60 0
-299 -57 60 0
299 -298 57 60 -58 0
299 -298 -57 -60 -58 0
301 298 -57 0
301 -298 57 0
-301 298 57 0
-301 -298 -57 0
300 60 -58 0
300 -60 58 0
-300 60 58 0
-300 -60 -58 0
-302 301 0
-302 56 0
-302 55 -58 0
-302 -55 58 0
302 -301 55 58 -56 0
302 -301 -55 -58 -56 0
304 301 -55 0
304 -301 55 0
-304 301 55 0
-304 -301 -55 0
303 58 -56 0
303 -58 56 0
-303 58 56 0
-303 -58 -56 0
-305 304 0
-305 54 0
-305 53 -56 0
-305 -53 56 0
305 -304 53 56 -54 0
305 -304 -53 -56 -54 0
307 304 -53 0
307 -304 53 0
-307 304 53 0
-307 -304 -53 0
306 56 -54 0
306 -56 54 0
-306 56 54 0
-306 -56 -54 0
-308 307 0
-308 52 0
-308 51 -54 0
-308 -51 54 0
308 -307 51 54 -52 0
308 -307 -51 -54 -52 0
310 307 -51 0
310 -307 51 0
-310 307 51 0
-310 -307 -51 0
309 54 -52 0
309 -54 52 0
-309 54 52 0
-309 -54 -52 0
-311 310 0
-311 50 0
-311 49 -52 0
-311 -49 52 0
311 -310 49 52 -50 0
311 -310 -49 -52 -50 0
313 310 -49 0
313 -310 49 0
-313 310 49 0
-313 -310 -49 0
312 52 -50 0
312 -52 50 0
-312 52 50 0
-312 -52 -50 0
-314 313 0
-314 48 0
-314 47 -50 0
-314 -47 50 0
314 -313 47 50 -48 0
314 -313 -47 -50 -48 0
316 313 -47 0
316 -313 47 0
-316 313 47 0
-316 -313 -47 0
315 50 -48 0
315 -50 48 0
-315 50 48 0
-315 -50 -48 0
-317 316 0
-317 46 0
-317 45 -48 0
-317 -45 48 0
317 -316 45 48 -46 0
317 -316 -45 -48 -46 0
319 316 -45 0
319 -316 45 0
-319 316 45 0
-319 -316 -45 0
318 48 -46 0
318 -48 46 0
-318 48 46 0
-318 -48 -46 0
-320 319 0
-320 44 0
-320 43 -46 0
-320 -43 46 0
320 -319 43 46 -44 0
320 -319 -43 -46 -44 0
322 319 -43 0
322 -319 43 0
-322 319 43 0
-322 -319 -43 0
321 46 -44 0
321 -46 44 0
-321 46 44 0
-321 -46 -44 0
-323 322 0
-323 42 0
-323 41 -44 0
-323 -41 44 0
323 -322 41 44 -42 0
323 -322 -41 -44 -42 0
325 322 -41 0
325 -322 41 0
-325 322 41 0
-325 -322 -41 0
324 44 -42 0
324 -44 42 0
-324 44 42 0
-324 -44 -42 0
-326 325 0
-326 40 0
-326 39 -42 0
-326 -39 42 0
326 -325 39 42 -40 0
326 -325 -39 -42 -40 0
328 325 -39 0
328 -325 39 0
-328 325 39 0
-328 -325 -39 0
327 42 -40 0
327 -42 40 0
-327 42 40 0
-327 -42 -40 0
-329 328 0
-329 38 0
-329 37 -40 0
-329 -37 40 0
329 -328 37 40 -38 0
329 -328 -37 -40 -38 0
331 328 -37 0
331 -328 37 0
-331 328 37 0
-331 -328 -37 0
330 40 -38 0
330 -40 38 0
-330 40 38 0
-330 -40 -38 0
-332 331 0
-332 36 0
-332 35 -38 0
-332 -35 38 0
332 -331 35 38 -36 0
332 -331 -35 -38 -36 0
334 331 -35 0
334 -331 35 0
-334 331 35 0
-334 -331 -35 0
333 38 -36 0
333 -38 36 0
-333 38 36 0
-333 -38 -36 0
-335 334 0
-335 34 0
-335 33 -36 0
-335 -33 36 0
335 -334 33 36 -34 0
335 -334 -33 -36 -34 0
337 334 -33 0
337 -334 33 0
-337 334 33 0
-337 -334 -33 0
336 36 -34 0
336 -36 34 0
-336 36 34 0
-336 -36 -34 0
-338 337 0
-338 32 0
-338 31 -34 0
-338 -31 34 0
338 -337 31 34 -32 0
338 -337 -31 -34 -32 0
340 337 -31 0
340 -337 31 0
-340 337 31 0
-340 -337 -31 0
339 34 -32 0
339 -34 32 0
-339 34 32 0
-339 -34 -32 0
-341 340 0
-341 30 0
-341 29 -32 0
-341 -29 32 0
341 -340 29 32 -30 0
341 -340 -29 -32 -30 0
343 340 -29 0
343 -340 29 0
-343 340 29 0
-343 -340 -29 0
342 32 -30 0
342 -32 30 0
-342 32 30 0
-342 -32 -30 0
-344 343 0
-344 28 0
-344 27 -30 0
-344 -27 30 0
344 -343 27 30 -28 0
344 -343 -27 -30 -28 0
346 343 -27 0
346 -343 27 0
-346 343 27 0
-346 -343 -27 0
345 30 -28 0
345 -30 28 0
-345 30 28 0
-345 -30 -28 0
-347 346 0
-347 26 0
-347 25 -28 0
-347 -25 28 0
347 -346 25 28 -26 0
347 -346 -25 -28 -26 0
349 346 -25 0
349 -346 25 0
-349 346 25 0
-349 -346 -25 0
348 28 -26 0
348 -28 26 0
-348 28 26 0
-348 -28 -26 0
-350 349 0
-350 24 0
-350 23 -26 0
-350 -23 26 0
350 -349 23 26 -24 0
350 -349 -23 -26 -24 0
352 349 -23 0
352 -349 23 0
-352 349 23 0
-352 -349 -23 0
351 26 -24 0
351 -26 24 0
-351 26 24 0
-351 -26 -24 0
-353 352 0
-353 22 0
-353 21 -24 0
-353 -21 24 0
353 -352 21 24 -22 0
353 -352 -21 -24 -22 0
355 352 -21 0
355 -352 21 0
-355 352 21 0
-355 -352 -21 0
354 24 -22 0
354 -24 22 0
-354 24 22 0
-354 -24 -22 0
-356 355 0
-356 20 0
-356 19 -22 0
-356 -19 22 0
356 -355 19 22 -20 0
356 -355 -19 -22 -20 0
358 355 -19 0
358 -355 19 0
-358 355 19 0
-358 -355 -19 0
357 22 -20 0
357 -22 20 0
-357 22 20 0
-357 -22 -20 0
-359 358 0
-359 18 0
-359 17 -20 0
-359 -17 20 0
359 -358 17 20 -18 0
359 -358 -17 -20 -18 0
361 358 -17 0
361 -358 17 0
-361 358 17 0
-361 -358 -17 0
360 20 -18 0
360 -20 18 0
-360 20 18 0
-360 -20 -18 0
-362 361 0
-362 16 0
-362 15 -18 0
-362 -15 18 0
362 -361 15 18 -16 0
362 -361 -15 -18 -16 0
364 361 -15 0
364 -361 15 0
-364 361 15 0
-364 -361 -15 0
363 18 -16 0
363 -18 16 0
-363 18 16 0
-363 -18 -16 0
-365 364 0
-365 14 0
-365 13 -16 0
-365 -13 16 0
365 -364 13 16 -14 0
365 -364 -13 -16 -14 0
367 364 -13 0
367 -364 13 0
-367 364 13 0
-367 -364 -13 0
366 16 -14 0
366 -16 14 0
-366 16 14 0
-366 -16 -14 0
-368 367 0
-368 12 0
-368 11 -14 0
-368 -11 14 0
368 -367 11 14 -12 0
368 -367 -11 -14 -12 0
370 367 -11 0
370 -367 11 0
-370 367 11 0
-370 -367 -11 0
369 14 -12 0
369 -14 12 0
-369 14 12 0
-369 -14 -12 0
-371 370 0
-371 10 0
-371 9 -12 0
-371 -9 12 0
371 -370 9 12 -10 0
371 -370 -9 -12 -10 0
373 370 -9 0
373 -370 9 0
-373 370 9 0
-373 -370 -9 0
372 12 -10 0
372 -12 10 0
-372 12 10 0
-372 -12 -10 0
-374 373 0
-374 8 0
-374 7 -10 0
-374 -7 10 0
374 -373 7 10 -8 0
374 -373 -7 -10 -8 0
376 373 -7 0
376 -373 7 0
-376 373 7 0
-376 -373 -7 0
375 10 -8 0
375 -10 8 0
-375 10 8 0
-375 -10 -8 0
-377 376 0
-377 6 0
-377 5 -8 0
-377 -5 8 0
377 -376 5 8 -6 0
377 -376 -5 -8 -6 0
379 376 -5 0
379 -376 5 0
-379 376 5 0
-379 -376 -5 0
378 8 -6 0
378 -8 6 0
-378 8 6 0
-378 -8 -6 0
-380 379 0
-380 4 0
-380 3 -6 0
-380 -3 6 0
380 -379 3 6 -4 0
380 -379 -3 -6 -4 0
382 379 -3 0
382 -379 3 0
-382 379 3 0
-382 -379 -3 0
381 6 -4 0
381 -6 4 0
-381 6 4 0
-381 -6 -4 0
-383 382 0
-383 2 0
-383 1 -4 0
-383 -1 4 0
383 -382 1 4 -2 0
383 -382 -1 -4 -2 0
385 382 -1 0
385 -382 1 0
-385 382 1 0
-385 -382 -1 0
384 4 -2 0
384 -4 2 0
-384 4 2 0
-384 -4 -2 0
-385 0
-382 0
-384 0
-379 0
-381 0
-376 0
-378 0
-373 0
-375 0
-370 0
-372 0
-367 0
-369 0
-364 0
-366 0
-361 0
-363 0
-358 0
-360 0
-355 0
-357 0
-352 0
-354 0
-349 0
-351 0
-346 0
-348 0
-343 0
-345 0
-340 0
-342 0
-337 0
-339 0
-334 0
-336 0
-331 0
-333 0
-328 0
-330 0
-325 0
-327 0
-322 0
-324 0
-319 0
-321 0
-316 0
-318 0
-313 0
-315 0
-310 0
-312 0
-307 0
-309 0
-304 0
-306 0
-301 0
-303 0
-298 0
-300 0
-295 0
-297 0
-292 0
-294 0
-289 0
-291 0
-286 0
-288 0
-283 0
-285 0
-280 0
-282 0
-277 0
-279 0
-274 0
-276 0
-271 0
-273 0
-268 0
-270 0
-265 0
-267 0
-262 0
-264 0
-259 0
-261 0
-256 0
-258 0
-253 0
-255 0
-250 0
-252 0
-247 0
-249 0
-244 0
-246 0
-241 0
-243 0
-238 0
-240 0
-235 0
-237 0
-232 0
-234 0
-229 0
-231 0
-226 0
-228 0
-223 0
-225 0
-220 0
-222 0
-217 0
-219 0
-214 0
-216 0
-211 0
-213 0
-208 0
-210 0
-205 0
-207 0
-202 0
-204 0
-199 0
-201 0
-196 0
-198 0
-193 0
-195 0
-190 0
-192 0
-187 0
-189 0
-184 0
-186 0
-181 0
-183 0
-178 0
-180 0
-175 0
-177 0
-172 0
-174 0
-169 0
-171 0
-166 0
-168 0
-163 0
-165 0
-156 0
-162 0
